c colouring generated by benchmark framework
p edge 645 13979
v 1 1
v 2 0
v 3 2
v 4 20
v 5 19
v 6 17
v 7 13
v 8 10
v 9 8
v 10 6
v 11 7
v 12 4
v 13 5
v 14 9
v 15 15
v 16 3
v 17 0
v 18 15
v 19 14
v 20 13
v 21 12
v 22 11
v 23 10
v 24 3
v 25 2
v 26 1
v 27 9
v 28 8
v 29 7
v 30 6
v 31 5
v 32 4
v 33 25
v 34 28
v 35 20
v 36 20
v 37 20
v 38 25
v 39 21
v 40 25
v 41 25
v 42 17
v 43 16
v 44 17
v 45 20
v 46 19
v 47 20
v 48 18
v 49 21
v 50 22
v 51 28
v 52 21
v 53 25
v 54 20
v 55 26
v 56 20
v 57 28
v 58 23
v 59 20
v 60 21
v 61 28
v 62 20
v 63 16
v 64 16
v 65 16
v 66 16
v 67 16
v 68 16
v 69 16
v 70 16
v 71 16
v 72 14
v 73 14
v 74 12
v 75 11
v 76 12
v 77 14
v 78 16
v 79 18
v 80 23
v 81 16
v 82 18
v 83 17
v 84 17
v 85 17
v 86 17
v 87 18
v 88 17
v 89 17
v 90 17
v 91 0
v 92 21
v 93 22
v 94 24
v 95 26
v 96 24
v 97 19
v 98 18
v 99 0
v 100 24
v 101 0
v 102 0
v 103 0
v 104 23
v 105 22
v 106 21
v 107 0
v 108 0
v 109 0
v 110 26
v 111 25
v 112 26
v 113 27
v 114 27
v 115 27
v 116 0
v 117 0
v 118 0
v 119 26
v 120 0
v 121 0
v 122 26
v 123 0
v 124 28
v 125 28
v 126 28
v 127 30
v 128 28
v 129 29
v 130 0
v 131 27
v 132 29
v 133 28
v 134 0
v 135 22
v 136 22
v 137 24
v 138 24
v 139 22
v 140 24
v 141 19
v 142 22
v 143 22
v 144 24
v 145 22
v 146 25
v 147 26
v 148 25
v 149 25
v 150 26
v 151 25
v 152 26
v 153 19
v 154 25
v 155 25
v 156 19
v 157 26
v 158 25
v 159 25
v 160 25
v 161 26
v 162 25
v 163 25
v 164 26
v 165 25
v 166 25
v 167 26
v 168 25
v 169 20
v 170 25
v 171 26
v 172 25
v 173 25
v 174 26
v 175 26
v 176 25
v 177 0
v 178 21
v 179 20
v 180 0
v 181 0
v 182 0
v 183 0
v 184 24
v 185 25
v 186 26
v 187 23
v 188 24
v 189 25
v 190 27
v 191 25
v 192 28
v 193 25
v 194 26
v 195 25
v 196 29
v 197 29
v 198 28
v 199 28
v 200 29
v 201 27
v 202 29
v 203 25
v 204 27
v 205 25
v 206 27
v 207 26
v 208 25
v 209 0
v 210 0
v 211 23
v 212 0
v 213 26
v 214 25
v 215 25
v 216 24
v 217 24
v 218 24
v 219 25
v 220 26
v 221 27
v 222 25
v 223 26
v 224 23
v 225 0
v 226 0
v 227 0
v 228 27
v 229 21
v 230 25
v 231 20
v 232 26
v 233 25
v 234 26
v 235 25
v 236 20
v 237 0
v 238 20
v 239 20
v 240 20
v 241 25
v 242 26
v 243 25
v 244 20
v 245 21
v 246 25
v 247 23
v 248 21
v 249 0
v 250 22
v 251 0
v 252 23
v 253 26
v 254 27
v 255 28
v 256 27
v 257 27
v 258 28
v 259 27
v 260 28
v 261 26
v 262 26
v 263 26
v 264 27
v 265 27
v 266 27
v 267 26
v 268 26
v 269 0
v 270 23
v 271 20
v 272 20
v 273 22
v 274 20
v 275 0
v 276 21
v 277 22
v 278 23
v 279 24
v 280 22
v 281 0
v 282 0
v 283 24
v 284 26
v 285 25
v 286 23
v 287 24
v 288 25
v 289 26
v 290 23
v 291 23
v 292 23
v 293 23
v 294 24
v 295 23
v 296 26
v 297 27
v 298 26
v 299 25
v 300 25
v 301 25
v 302 27
v 303 0
v 304 27
v 305 0
v 306 23
v 307 28
v 308 28
v 309 0
v 310 28
v 311 23
v 312 0
v 313 23
v 314 25
v 315 21
v 316 21
v 317 24
v 318 24
v 319 23
v 320 23
v 321 23
v 322 24
v 323 23
v 324 23
v 325 23
v 326 23
v 327 21
v 328 24
v 329 22
v 330 23
v 331 24
v 332 21
v 333 23
v 334 24
v 335 23
v 336 22
v 337 21
v 338 23
v 339 23
v 340 24
v 341 23
v 342 23
v 343 22
v 344 23
v 345 21
v 346 22
v 347 22
v 348 21
v 349 21
v 350 21
v 351 21
v 352 20
v 353 20
v 354 0
v 355 21
v 356 17
v 357 16
v 358 18
v 359 19
v 360 24
v 361 23
v 362 22
v 363 21
v 364 23
v 365 22
v 366 21
v 367 20
v 368 19
v 369 17
v 370 18
v 371 16
v 372 17
v 373 16
v 374 17
v 375 18
v 376 18
v 377 0
v 378 0
v 379 19
v 380 19
v 381 20
v 382 0
v 383 19
v 384 0
v 385 0
v 386 0
v 387 21
v 388 0
v 389 17
v 390 0
v 391 0
v 392 18
v 393 0
v 394 16
v 395 0
v 396 18
v 397 20
v 398 20
v 399 21
v 400 0
v 401 0
v 402 20
v 403 21
v 404 22
v 405 20
v 406 21
v 407 22
v 408 20
v 409 20
v 410 20
v 411 20
v 412 21
v 413 20
v 414 0
v 415 22
v 416 23
v 417 22
v 418 22
v 419 21
v 420 21
v 421 21
v 422 22
v 423 23
v 424 24
v 425 26
v 426 27
v 427 25
v 428 22
v 429 23
v 430 24
v 431 26
v 432 27
v 433 25
v 434 0
v 435 0
v 436 28
v 437 23
v 438 25
v 439 26
v 440 24
v 441 26
v 442 24
v 443 27
v 444 27
v 445 26
v 446 25
v 447 25
v 448 27
v 449 26
v 450 26
v 451 27
v 452 24
v 453 24
v 454 24
v 455 24
v 456 25
v 457 27
v 458 26
v 459 26
v 460 26
v 461 26
v 462 25
v 463 25
v 464 23
v 465 26
v 466 23
v 467 23
v 468 23
v 469 0
v 470 28
v 471 20
v 472 21
v 473 21
v 474 20
v 475 21
v 476 20
v 477 23
v 478 22
v 479 22
v 480 23
v 481 21
v 482 22
v 483 23
v 484 22
v 485 21
v 486 21
v 487 20
v 488 20
v 489 21
v 490 24
v 491 25
v 492 24
v 493 24
v 494 23
v 495 21
v 496 21
v 497 23
v 498 24
v 499 25
v 500 24
v 501 22
v 502 22
v 503 20
v 504 22
v 505 0
v 506 0
v 507 0
v 508 0
v 509 25
v 510 24
v 511 23
v 512 22
v 513 24
v 514 25
v 515 0
v 516 0
v 517 23
v 518 26
v 519 25
v 520 25
v 521 24
v 522 24
v 523 24
v 524 25
v 525 26
v 526 27
v 527 25
v 528 26
v 529 27
v 530 0
v 531 0
v 532 23
v 533 25
v 534 24
v 535 24
v 536 24
v 537 23
v 538 0
v 539 23
v 540 21
v 541 23
v 542 22
v 543 21
v 544 24
v 545 23
v 546 24
v 547 21
v 548 23
v 549 21
v 550 22
v 551 21
v 552 22
v 553 23
v 554 23
v 555 22
v 556 22
v 557 0
v 558 21
v 559 0
v 560 27
v 561 26
v 562 26
v 563 25
v 564 25
v 565 26
v 566 25
v 567 27
v 568 26
v 569 27
v 570 0
v 571 0
v 572 22
v 573 0
v 574 26
v 575 24
v 576 0
v 577 24
v 578 26
v 579 24
v 580 24
v 581 24
v 582 0
v 583 28
v 584 27
v 585 27
v 586 23
v 587 23
v 588 27
v 589 28
v 590 27
v 591 26
v 592 26
v 593 27
v 594 22
v 595 0
v 596 27
v 597 26
v 598 27
v 599 22
v 600 0
v 601 26
v 602 22
v 603 22
v 604 0
v 605 22
v 606 22
v 607 22
v 608 22
v 609 0
v 610 0
v 611 0
v 612 22
v 613 0
v 614 0
v 615 0
v 616 0
v 617 24
v 618 23
v 619 24
v 620 25
v 621 0
v 622 0
v 623 23
v 624 25
v 625 26
v 626 25
v 627 25
v 628 24
v 629 24
v 630 24
v 631 26
v 632 27
v 633 0
v 634 26
v 635 27
v 636 0
v 637 28
v 638 27
v 639 26
v 640 26
v 641 27
v 642 26
v 643 26
v 644 0
v 645 28
